Minimize
	value: tt

Subject to
tt + 1000 s_1_1 > 0.0
tt - t_1_1 - 1002.654428 s_1_1  + 2.654428 s_1_7  > -973.379956
tt + 1000 s_2_1 > 0.0
tt - t_2_1 - 1002.377314 s_2_1  + 2.377314 s_2_7  > -959.870175
tt + 1000 s_1_2 > 0.0
tt - t_1_2 - 1002.654428 s_1_2  + 2.654428 s_1_8  > -971.741792
tt + 1000 s_2_2 > 0.0
tt - t_2_2 - 1002.377314 s_2_2  + 2.377314 s_2_8  > -958.663978
tt + 1000 s_1_3 > 0.0
tt - t_1_3 - 1002.654428 s_1_3  + 2.654428 s_1_8  > -952.265067
tt + 1000 s_2_3 > 0.0
tt - t_2_3 - 1002.377314 s_2_3  + 2.377314 s_2_8  > -931.426222
tt + 1000 s_1_4 > 0.0
tt - t_1_4 - 1005.308856 s_1_4  + 2.654428 s_1_3  + 2.654428 s_1_8  > -974.680411
tt + 1000 s_2_4 > 0.0
tt - t_2_4 - 1004.754628 s_2_4  + 2.377314 s_2_3  + 2.377314 s_2_8  > -961.301847
tt + 1000 s_1_5 > 0.0
tt - t_1_5 - 1005.308856 s_1_5  + 2.654428 s_1_7  + 2.654428 s_1_8  > -976.253800
tt + 1000 s_2_5 > 0.0
tt - t_2_5 - 1004.754628 s_2_5  + 2.377314 s_2_7  + 2.377314 s_2_8  > -964.561800
tt + 1000 s_1_6 > 0.0
tt - t_1_6 - 1013.272139 s_1_6  + 2.654428 s_1_1  + 2.654428 s_1_2  + 2.654428 s_1_4  + 2.654428 s_1_5  + 2.654428 s_1_3  > -998.834400
tt + 1000 s_2_6 > 0.0
tt - t_2_6 - 1011.886570 s_2_6  + 2.377314 s_2_1  + 2.377314 s_2_2  + 2.377314 s_2_4  + 2.377314 s_2_5  + 2.377314 s_2_3  > -987.702500
tt + 1000 s_1_7 > 0.0
tt - t_1_7 - 1000.000000 s_1_7  > -899.695300
tt + 1000 s_2_7 > 0.0
tt - t_2_7 - 1000.000000 s_2_7  > -928.189500
tt + 1000 s_1_8 > 0.0
tt - t_1_8 - 1000.000000 s_1_8  > -900.156889
tt + 1000 s_2_8 > 0.0
tt - t_2_8 - 1000.000000 s_2_8  > -928.592000
s_1_1 + s_2_1 = 1
s_1_2 + s_2_2 = 1
s_1_3 + s_2_3 = 1
s_1_4 + s_2_4 = 1
s_1_5 + s_2_5 = 1
s_1_6 + s_2_6 = 1
s_1_7 + s_2_7 = 1
s_1_8 + s_2_8 = 1
s_1_1 + s_1_2 + 1000 r_1_1_2 >= 2
- s_1_1 - s_1_2 - 1000 r_1_1_2 >= -1001
t_1_1 - t_1_2 - 1000.000000 u_1_1_2 - 2.654428 s_1_2  + 2.654428 s_1_8  + 2000.000000 r_1_1_2 > -971.741792
s_2_1 + s_2_2 + 1000 r_2_1_2 >= 2
- s_2_1 - s_2_2 - 1000 r_2_1_2 >= -1001
t_2_1 - t_2_2 - 1000.000000 u_2_1_2 - 2.377314 s_2_2  + 2.377314 s_2_8  + 2000.000000 r_2_1_2 > -958.663978
s_1_1 + s_1_3 + 1000 r_1_1_3 >= 2
- s_1_1 - s_1_3 - 1000 r_1_1_3 >= -1001
t_1_1 - t_1_3 - 1000.000000 u_1_1_3 - 2.654428 s_1_3  + 2.654428 s_1_8  + 2000.000000 r_1_1_3 > -952.265067
s_2_1 + s_2_3 + 1000 r_2_1_3 >= 2
- s_2_1 - s_2_3 - 1000 r_2_1_3 >= -1001
t_2_1 - t_2_3 - 1000.000000 u_2_1_3 - 2.377314 s_2_3  + 2.377314 s_2_8  + 2000.000000 r_2_1_3 > -931.426222
s_1_1 + s_1_4 + 1000 r_1_1_4 >= 2
- s_1_1 - s_1_4 - 1000 r_1_1_4 >= -1001
t_1_1 - t_1_4 - 1000.000000 u_1_1_4 - 5.308856 s_1_4  + 2.654428 s_1_3  + 2.654428 s_1_8  + 2000.000000 r_1_1_4 > -974.680411
s_2_1 + s_2_4 + 1000 r_2_1_4 >= 2
- s_2_1 - s_2_4 - 1000 r_2_1_4 >= -1001
t_2_1 - t_2_4 - 1000.000000 u_2_1_4 - 4.754628 s_2_4  + 2.377314 s_2_3  + 2.377314 s_2_8  + 2000.000000 r_2_1_4 > -961.301847
s_1_1 + s_1_5 + 1000 r_1_1_5 >= 2
- s_1_1 - s_1_5 - 1000 r_1_1_5 >= -1001
t_1_1 - t_1_5 - 1000.000000 u_1_1_5 - 5.308856 s_1_5  + 2.654428 s_1_7  + 2.654428 s_1_8  + 2000.000000 r_1_1_5 > -976.253800
s_2_1 + s_2_5 + 1000 r_2_1_5 >= 2
- s_2_1 - s_2_5 - 1000 r_2_1_5 >= -1001
t_2_1 - t_2_5 - 1000.000000 u_2_1_5 - 4.754628 s_2_5  + 2.377314 s_2_7  + 2.377314 s_2_8  + 2000.000000 r_2_1_5 > -964.561800
t_1_6 - t_1_1 - 1002.654428 s_1_1  + 2.654428 s_1_7  > -973.379956
t_1_6 - t_2_1 - 1002.377314 s_2_1  + 2.377314 s_2_7  > -959.870175
t_2_6 - t_1_1 - 1002.654428 s_1_1  + 2.654428 s_1_7  > -973.379956
t_2_6 - t_2_1 - 1002.377314 s_2_1  + 2.377314 s_2_7  > -959.870175
t_1_1 - t_1_7 - 1000.000000 s_1_7  > -899.695300
t_1_1 - t_2_7 - 1000.000000 s_2_7  > -928.189500
t_2_1 - t_1_7 - 1000.000000 s_1_7  > -899.695300
t_2_1 - t_2_7 - 1000.000000 s_2_7  > -928.189500
s_1_1 + s_1_8 + 1000 r_1_1_8 >= 2
- s_1_1 - s_1_8 - 1000 r_1_1_8 >= -1001
t_1_1 - t_1_8 - 1000.000000 u_1_1_8 - 0.000000 s_1_8  + 2000.000000 r_1_1_8 > -900.156889
s_2_1 + s_2_8 + 1000 r_2_1_8 >= 2
- s_2_1 - s_2_8 - 1000 r_2_1_8 >= -1001
t_2_1 - t_2_8 - 1000.000000 u_2_1_8 - 0.000000 s_2_8  + 2000.000000 r_2_1_8 > -928.592000
s_1_2 + s_1_1 + 1000 r_1_1_2 >= 2
- s_1_2 - s_1_1 - 1000 r_1_1_2 >= -1001
t_1_2 - t_1_1 + 1000.000000 u_1_1_2 - 2.654428 s_1_1  + 2.654428 s_1_7  + 2000.000000 r_1_1_2 > 26.620044
s_2_2 + s_2_1 + 1000 r_2_1_2 >= 2
- s_2_2 - s_2_1 - 1000 r_2_1_2 >= -1001
t_2_2 - t_2_1 + 1000.000000 u_2_1_2 - 2.377314 s_2_1  + 2.377314 s_2_7  + 2000.000000 r_2_1_2 > 40.129825
s_1_2 + s_1_3 + 1000 r_1_2_3 >= 2
- s_1_2 - s_1_3 - 1000 r_1_2_3 >= -1001
t_1_2 - t_1_3 - 1000.000000 u_1_2_3 - 2.654428 s_1_3  + 2.654428 s_1_8  + 2000.000000 r_1_2_3 > -952.265067
s_2_2 + s_2_3 + 1000 r_2_2_3 >= 2
- s_2_2 - s_2_3 - 1000 r_2_2_3 >= -1001
t_2_2 - t_2_3 - 1000.000000 u_2_2_3 - 2.377314 s_2_3  + 2.377314 s_2_8  + 2000.000000 r_2_2_3 > -931.426222
s_1_2 + s_1_4 + 1000 r_1_2_4 >= 2
- s_1_2 - s_1_4 - 1000 r_1_2_4 >= -1001
t_1_2 - t_1_4 - 1000.000000 u_1_2_4 - 5.308856 s_1_4  + 2.654428 s_1_3  + 2.654428 s_1_8  + 2000.000000 r_1_2_4 > -974.680411
s_2_2 + s_2_4 + 1000 r_2_2_4 >= 2
- s_2_2 - s_2_4 - 1000 r_2_2_4 >= -1001
t_2_2 - t_2_4 - 1000.000000 u_2_2_4 - 4.754628 s_2_4  + 2.377314 s_2_3  + 2.377314 s_2_8  + 2000.000000 r_2_2_4 > -961.301847
s_1_2 + s_1_5 + 1000 r_1_2_5 >= 2
- s_1_2 - s_1_5 - 1000 r_1_2_5 >= -1001
t_1_2 - t_1_5 - 1000.000000 u_1_2_5 - 5.308856 s_1_5  + 2.654428 s_1_7  + 2.654428 s_1_8  + 2000.000000 r_1_2_5 > -976.253800
s_2_2 + s_2_5 + 1000 r_2_2_5 >= 2
- s_2_2 - s_2_5 - 1000 r_2_2_5 >= -1001
t_2_2 - t_2_5 - 1000.000000 u_2_2_5 - 4.754628 s_2_5  + 2.377314 s_2_7  + 2.377314 s_2_8  + 2000.000000 r_2_2_5 > -964.561800
t_1_6 - t_1_2 - 1002.654428 s_1_2  + 2.654428 s_1_8  > -971.741792
t_1_6 - t_2_2 - 1002.377314 s_2_2  + 2.377314 s_2_8  > -958.663978
t_2_6 - t_1_2 - 1002.654428 s_1_2  + 2.654428 s_1_8  > -971.741792
t_2_6 - t_2_2 - 1002.377314 s_2_2  + 2.377314 s_2_8  > -958.663978
s_1_2 + s_1_7 + 1000 r_1_2_7 >= 2
- s_1_2 - s_1_7 - 1000 r_1_2_7 >= -1001
t_1_2 - t_1_7 - 1000.000000 u_1_2_7 - 0.000000 s_1_7  + 2000.000000 r_1_2_7 > -899.695300
s_2_2 + s_2_7 + 1000 r_2_2_7 >= 2
- s_2_2 - s_2_7 - 1000 r_2_2_7 >= -1001
t_2_2 - t_2_7 - 1000.000000 u_2_2_7 - 0.000000 s_2_7  + 2000.000000 r_2_2_7 > -928.189500
t_1_2 - t_1_8 - 1000.000000 s_1_8  > -900.156889
t_1_2 - t_2_8 - 1000.000000 s_2_8  > -928.592000
t_2_2 - t_1_8 - 1000.000000 s_1_8  > -900.156889
t_2_2 - t_2_8 - 1000.000000 s_2_8  > -928.592000
s_1_3 + s_1_1 + 1000 r_1_1_3 >= 2
- s_1_3 - s_1_1 - 1000 r_1_1_3 >= -1001
t_1_3 - t_1_1 + 1000.000000 u_1_1_3 - 2.654428 s_1_1  + 2.654428 s_1_7  + 2000.000000 r_1_1_3 > 26.620044
s_2_3 + s_2_1 + 1000 r_2_1_3 >= 2
- s_2_3 - s_2_1 - 1000 r_2_1_3 >= -1001
t_2_3 - t_2_1 + 1000.000000 u_2_1_3 - 2.377314 s_2_1  + 2.377314 s_2_7  + 2000.000000 r_2_1_3 > 40.129825
s_1_3 + s_1_2 + 1000 r_1_2_3 >= 2
- s_1_3 - s_1_2 - 1000 r_1_2_3 >= -1001
t_1_3 - t_1_2 + 1000.000000 u_1_2_3 - 2.654428 s_1_2  + 2.654428 s_1_8  + 2000.000000 r_1_2_3 > 28.258208
s_2_3 + s_2_2 + 1000 r_2_2_3 >= 2
- s_2_3 - s_2_2 - 1000 r_2_2_3 >= -1001
t_2_3 - t_2_2 + 1000.000000 u_2_2_3 - 2.377314 s_2_2  + 2.377314 s_2_8  + 2000.000000 r_2_2_3 > 41.336022
t_1_4 - t_1_3 - 1002.654428 s_1_3  + 2.654428 s_1_8  > -952.265067
t_1_4 - t_2_3 - 1002.377314 s_2_3  + 2.377314 s_2_8  > -931.426222
t_2_4 - t_1_3 - 1002.654428 s_1_3  + 2.654428 s_1_8  > -952.265067
t_2_4 - t_2_3 - 1002.377314 s_2_3  + 2.377314 s_2_8  > -931.426222
s_1_3 + s_1_5 + 1000 r_1_3_5 >= 2
- s_1_3 - s_1_5 - 1000 r_1_3_5 >= -1001
t_1_3 - t_1_5 - 1000.000000 u_1_3_5 - 5.308856 s_1_5  + 2.654428 s_1_7  + 2.654428 s_1_8  + 2000.000000 r_1_3_5 > -976.253800
s_2_3 + s_2_5 + 1000 r_2_3_5 >= 2
- s_2_3 - s_2_5 - 1000 r_2_3_5 >= -1001
t_2_3 - t_2_5 - 1000.000000 u_2_3_5 - 4.754628 s_2_5  + 2.377314 s_2_7  + 2.377314 s_2_8  + 2000.000000 r_2_3_5 > -964.561800
t_1_6 - t_1_3 - 1002.654428 s_1_3  + 2.654428 s_1_8  > -952.265067
t_1_6 - t_2_3 - 1002.377314 s_2_3  + 2.377314 s_2_8  > -931.426222
t_2_6 - t_1_3 - 1002.654428 s_1_3  + 2.654428 s_1_8  > -952.265067
t_2_6 - t_2_3 - 1002.377314 s_2_3  + 2.377314 s_2_8  > -931.426222
s_1_3 + s_1_7 + 1000 r_1_3_7 >= 2
- s_1_3 - s_1_7 - 1000 r_1_3_7 >= -1001
t_1_3 - t_1_7 - 1000.000000 u_1_3_7 - 0.000000 s_1_7  + 2000.000000 r_1_3_7 > -899.695300
s_2_3 + s_2_7 + 1000 r_2_3_7 >= 2
- s_2_3 - s_2_7 - 1000 r_2_3_7 >= -1001
t_2_3 - t_2_7 - 1000.000000 u_2_3_7 - 0.000000 s_2_7  + 2000.000000 r_2_3_7 > -928.189500
t_1_3 - t_1_8 - 1000.000000 s_1_8  > -900.156889
t_1_3 - t_2_8 - 1000.000000 s_2_8  > -928.592000
t_2_3 - t_1_8 - 1000.000000 s_1_8  > -900.156889
t_2_3 - t_2_8 - 1000.000000 s_2_8  > -928.592000
s_1_4 + s_1_1 + 1000 r_1_1_4 >= 2
- s_1_4 - s_1_1 - 1000 r_1_1_4 >= -1001
t_1_4 - t_1_1 + 1000.000000 u_1_1_4 - 2.654428 s_1_1  + 2.654428 s_1_7  + 2000.000000 r_1_1_4 > 26.620044
s_2_4 + s_2_1 + 1000 r_2_1_4 >= 2
- s_2_4 - s_2_1 - 1000 r_2_1_4 >= -1001
t_2_4 - t_2_1 + 1000.000000 u_2_1_4 - 2.377314 s_2_1  + 2.377314 s_2_7  + 2000.000000 r_2_1_4 > 40.129825
s_1_4 + s_1_2 + 1000 r_1_2_4 >= 2
- s_1_4 - s_1_2 - 1000 r_1_2_4 >= -1001
t_1_4 - t_1_2 + 1000.000000 u_1_2_4 - 2.654428 s_1_2  + 2.654428 s_1_8  + 2000.000000 r_1_2_4 > 28.258208
s_2_4 + s_2_2 + 1000 r_2_2_4 >= 2
- s_2_4 - s_2_2 - 1000 r_2_2_4 >= -1001
t_2_4 - t_2_2 + 1000.000000 u_2_2_4 - 2.377314 s_2_2  + 2.377314 s_2_8  + 2000.000000 r_2_2_4 > 41.336022
s_1_4 + s_1_5 + 1000 r_1_4_5 >= 2
- s_1_4 - s_1_5 - 1000 r_1_4_5 >= -1001
t_1_4 - t_1_5 - 1000.000000 u_1_4_5 - 5.308856 s_1_5  + 2.654428 s_1_7  + 2.654428 s_1_8  + 2000.000000 r_1_4_5 > -976.253800
s_2_4 + s_2_5 + 1000 r_2_4_5 >= 2
- s_2_4 - s_2_5 - 1000 r_2_4_5 >= -1001
t_2_4 - t_2_5 - 1000.000000 u_2_4_5 - 4.754628 s_2_5  + 2.377314 s_2_7  + 2.377314 s_2_8  + 2000.000000 r_2_4_5 > -964.561800
t_1_6 - t_1_4 - 1005.308856 s_1_4  + 2.654428 s_1_3  + 2.654428 s_1_8  > -974.680411
t_1_6 - t_2_4 - 1004.754628 s_2_4  + 2.377314 s_2_3  + 2.377314 s_2_8  > -961.301847
t_2_6 - t_1_4 - 1005.308856 s_1_4  + 2.654428 s_1_3  + 2.654428 s_1_8  > -974.680411
t_2_6 - t_2_4 - 1004.754628 s_2_4  + 2.377314 s_2_3  + 2.377314 s_2_8  > -961.301847
s_1_4 + s_1_7 + 1000 r_1_4_7 >= 2
- s_1_4 - s_1_7 - 1000 r_1_4_7 >= -1001
t_1_4 - t_1_7 - 1000.000000 u_1_4_7 - 0.000000 s_1_7  + 2000.000000 r_1_4_7 > -899.695300
s_2_4 + s_2_7 + 1000 r_2_4_7 >= 2
- s_2_4 - s_2_7 - 1000 r_2_4_7 >= -1001
t_2_4 - t_2_7 - 1000.000000 u_2_4_7 - 0.000000 s_2_7  + 2000.000000 r_2_4_7 > -928.189500
t_1_4 - t_1_8 - 1000.000000 s_1_8  > -900.156889
t_1_4 - t_2_8 - 1000.000000 s_2_8  > -928.592000
t_2_4 - t_1_8 - 1000.000000 s_1_8  > -900.156889
t_2_4 - t_2_8 - 1000.000000 s_2_8  > -928.592000
s_1_5 + s_1_1 + 1000 r_1_1_5 >= 2
- s_1_5 - s_1_1 - 1000 r_1_1_5 >= -1001
t_1_5 - t_1_1 + 1000.000000 u_1_1_5 - 2.654428 s_1_1  + 2.654428 s_1_7  + 2000.000000 r_1_1_5 > 26.620044
s_2_5 + s_2_1 + 1000 r_2_1_5 >= 2
- s_2_5 - s_2_1 - 1000 r_2_1_5 >= -1001
t_2_5 - t_2_1 + 1000.000000 u_2_1_5 - 2.377314 s_2_1  + 2.377314 s_2_7  + 2000.000000 r_2_1_5 > 40.129825
s_1_5 + s_1_2 + 1000 r_1_2_5 >= 2
- s_1_5 - s_1_2 - 1000 r_1_2_5 >= -1001
t_1_5 - t_1_2 + 1000.000000 u_1_2_5 - 2.654428 s_1_2  + 2.654428 s_1_8  + 2000.000000 r_1_2_5 > 28.258208
s_2_5 + s_2_2 + 1000 r_2_2_5 >= 2
- s_2_5 - s_2_2 - 1000 r_2_2_5 >= -1001
t_2_5 - t_2_2 + 1000.000000 u_2_2_5 - 2.377314 s_2_2  + 2.377314 s_2_8  + 2000.000000 r_2_2_5 > 41.336022
s_1_5 + s_1_3 + 1000 r_1_3_5 >= 2
- s_1_5 - s_1_3 - 1000 r_1_3_5 >= -1001
t_1_5 - t_1_3 + 1000.000000 u_1_3_5 - 2.654428 s_1_3  + 2.654428 s_1_8  + 2000.000000 r_1_3_5 > 47.734933
s_2_5 + s_2_3 + 1000 r_2_3_5 >= 2
- s_2_5 - s_2_3 - 1000 r_2_3_5 >= -1001
t_2_5 - t_2_3 + 1000.000000 u_2_3_5 - 2.377314 s_2_3  + 2.377314 s_2_8  + 2000.000000 r_2_3_5 > 68.573778
s_1_5 + s_1_4 + 1000 r_1_4_5 >= 2
- s_1_5 - s_1_4 - 1000 r_1_4_5 >= -1001
t_1_5 - t_1_4 + 1000.000000 u_1_4_5 - 5.308856 s_1_4  + 2.654428 s_1_3  + 2.654428 s_1_8  + 2000.000000 r_1_4_5 > 25.319589
s_2_5 + s_2_4 + 1000 r_2_4_5 >= 2
- s_2_5 - s_2_4 - 1000 r_2_4_5 >= -1001
t_2_5 - t_2_4 + 1000.000000 u_2_4_5 - 4.754628 s_2_4  + 2.377314 s_2_3  + 2.377314 s_2_8  + 2000.000000 r_2_4_5 > 38.698153
t_1_6 - t_1_5 - 1005.308856 s_1_5  + 2.654428 s_1_7  + 2.654428 s_1_8  > -976.253800
t_1_6 - t_2_5 - 1004.754628 s_2_5  + 2.377314 s_2_7  + 2.377314 s_2_8  > -964.561800
t_2_6 - t_1_5 - 1005.308856 s_1_5  + 2.654428 s_1_7  + 2.654428 s_1_8  > -976.253800
t_2_6 - t_2_5 - 1004.754628 s_2_5  + 2.377314 s_2_7  + 2.377314 s_2_8  > -964.561800
t_1_5 - t_1_7 - 1000.000000 s_1_7  > -899.695300
t_1_5 - t_2_7 - 1000.000000 s_2_7  > -928.189500
t_2_5 - t_1_7 - 1000.000000 s_1_7  > -899.695300
t_2_5 - t_2_7 - 1000.000000 s_2_7  > -928.189500
t_1_5 - t_1_8 - 1000.000000 s_1_8  > -900.156889
t_1_5 - t_2_8 - 1000.000000 s_2_8  > -928.592000
t_2_5 - t_1_8 - 1000.000000 s_1_8  > -900.156889
t_2_5 - t_2_8 - 1000.000000 s_2_8  > -928.592000
s_1_7 + s_1_2 + 1000 r_1_2_7 >= 2
- s_1_7 - s_1_2 - 1000 r_1_2_7 >= -1001
t_1_7 - t_1_2 + 1000.000000 u_1_2_7 - 2.654428 s_1_2  + 2.654428 s_1_8  + 2000.000000 r_1_2_7 > 28.258208
s_2_7 + s_2_2 + 1000 r_2_2_7 >= 2
- s_2_7 - s_2_2 - 1000 r_2_2_7 >= -1001
t_2_7 - t_2_2 + 1000.000000 u_2_2_7 - 2.377314 s_2_2  + 2.377314 s_2_8  + 2000.000000 r_2_2_7 > 41.336022
s_1_7 + s_1_3 + 1000 r_1_3_7 >= 2
- s_1_7 - s_1_3 - 1000 r_1_3_7 >= -1001
t_1_7 - t_1_3 + 1000.000000 u_1_3_7 - 2.654428 s_1_3  + 2.654428 s_1_8  + 2000.000000 r_1_3_7 > 47.734933
s_2_7 + s_2_3 + 1000 r_2_3_7 >= 2
- s_2_7 - s_2_3 - 1000 r_2_3_7 >= -1001
t_2_7 - t_2_3 + 1000.000000 u_2_3_7 - 2.377314 s_2_3  + 2.377314 s_2_8  + 2000.000000 r_2_3_7 > 68.573778
s_1_7 + s_1_4 + 1000 r_1_4_7 >= 2
- s_1_7 - s_1_4 - 1000 r_1_4_7 >= -1001
t_1_7 - t_1_4 + 1000.000000 u_1_4_7 - 5.308856 s_1_4  + 2.654428 s_1_3  + 2.654428 s_1_8  + 2000.000000 r_1_4_7 > 25.319589
s_2_7 + s_2_4 + 1000 r_2_4_7 >= 2
- s_2_7 - s_2_4 - 1000 r_2_4_7 >= -1001
t_2_7 - t_2_4 + 1000.000000 u_2_4_7 - 4.754628 s_2_4  + 2.377314 s_2_3  + 2.377314 s_2_8  + 2000.000000 r_2_4_7 > 38.698153
s_1_7 + s_1_8 + 1000 r_1_7_8 >= 2
- s_1_7 - s_1_8 - 1000 r_1_7_8 >= -1001
t_1_7 - t_1_8 - 1000.000000 u_1_7_8 - 0.000000 s_1_8  + 2000.000000 r_1_7_8 > -900.156889
s_2_7 + s_2_8 + 1000 r_2_7_8 >= 2
- s_2_7 - s_2_8 - 1000 r_2_7_8 >= -1001
t_2_7 - t_2_8 - 1000.000000 u_2_7_8 - 0.000000 s_2_8  + 2000.000000 r_2_7_8 > -928.592000
s_1_8 + s_1_1 + 1000 r_1_1_8 >= 2
- s_1_8 - s_1_1 - 1000 r_1_1_8 >= -1001
t_1_8 - t_1_1 + 1000.000000 u_1_1_8 - 2.654428 s_1_1  + 2.654428 s_1_7  + 2000.000000 r_1_1_8 > 26.620044
s_2_8 + s_2_1 + 1000 r_2_1_8 >= 2
- s_2_8 - s_2_1 - 1000 r_2_1_8 >= -1001
t_2_8 - t_2_1 + 1000.000000 u_2_1_8 - 2.377314 s_2_1  + 2.377314 s_2_7  + 2000.000000 r_2_1_8 > 40.129825
s_1_8 + s_1_7 + 1000 r_1_7_8 >= 2
- s_1_8 - s_1_7 - 1000 r_1_7_8 >= -1001
t_1_8 - t_1_7 + 1000.000000 u_1_7_8 - 0.000000 s_1_7  + 2000.000000 r_1_7_8 > 100.304700
s_2_8 + s_2_7 + 1000 r_2_7_8 >= 2
- s_2_8 - s_2_7 - 1000 r_2_7_8 >= -1001
t_2_8 - t_2_7 + 1000.000000 u_2_7_8 - 0.000000 s_2_7  + 2000.000000 r_2_7_8 > 71.810500
Binary
s_1_1
s_2_1
s_1_2
s_2_2
s_1_3
s_2_3
s_1_4
s_2_4
s_1_5
s_2_5
s_1_6
s_2_6
s_1_7
s_2_7
s_1_8
s_2_8
u_1_1_2
r_1_1_2
u_2_1_2
r_2_1_2
u_1_1_3
r_1_1_3
u_2_1_3
r_2_1_3
u_1_1_4
r_1_1_4
u_2_1_4
r_2_1_4
u_1_1_5
r_1_1_5
u_2_1_5
r_2_1_5
u_1_1_8
r_1_1_8
u_2_1_8
r_2_1_8
u_1_2_3
r_1_2_3
u_2_2_3
r_2_2_3
u_1_2_4
r_1_2_4
u_2_2_4
r_2_2_4
u_1_2_5
r_1_2_5
u_2_2_5
r_2_2_5
u_1_2_7
r_1_2_7
u_2_2_7
r_2_2_7
u_1_3_5
r_1_3_5
u_2_3_5
r_2_3_5
u_1_3_7
r_1_3_7
u_2_3_7
r_2_3_7
u_1_4_5
r_1_4_5
u_2_4_5
r_2_4_5
u_1_4_7
r_1_4_7
u_2_4_7
r_2_4_7
u_1_7_8
r_1_7_8
u_2_7_8
r_2_7_8

End
